outputs/demo_outputs/demo_outputs/rsa_demo_benchmark_output/64/certs/0010.assert.smt2
; benchmark generated from python API
(set-info :status unknown)
(declare-fun p () Int)
(declare-fun q () Int)
(declare-fun n () Int)
(assert
 (= p 2383898701))
(assert
 (= q 3311266583))
(assert
 (= n 7893724105878408683))
(assert
 (let ((?x31 (* p q)))
 (= ?x31 n)))
(assert
 (> p 1))
(assert
 (> q 1))
(check-sat)
